instances_lpnmr22_taurus/r_a1210993_20150717_0403_subgraph_tram_gr_bz2_lp_lp_paths_tw3.lp
%start is reachable
reach(X) :- X=#min{ Y: edge(Y,_); Y: edge(_,Y); Y: link(Y,_); Y: link(_,Y) }.

%goal
goal(X) :- X=#max{ Y: edge(Y,_); Y: edge(_,Y); Y: link(Y,_); Y: link(_,Y) }.

%guess select
select(X,Y) :- reach(X), edge(X,Y), not nots(X,Y).
select(X,Y) :- reach(X), edge(Y,X), not nots(X,Y).
nots(X,Y) :- reach(X), edge(Y,X), not select(X,Y).
nots(X,Y) :- reach(X), edge(X,Y), not select(X,Y).

reach(Y) :- select(X,Y).

:- reach(X), select(X,Y), select(X,Y2), Y < Y2. 
:- goal(X), select(X,_). 
:- not reach(X), goal(X).

% Graphs generated from publicly available GTFS transit feeds by Johannes K. Fichte
%
% References
% [1] https://en.wikipedia.org/wiki/General_Transit_Feed_Specification or
% [2] https://developers.google.com/transit/gtfs/
% [3] https://github.com/daajoe/transit_graphs/blob/master/transitfeeds-tw.pdf
% [4] https://github.com/daajoe/gtfs2graphs
% [5] https://github.com/daajoe/transit_graphs/converters/pace2lp.py
%
% GTFS feeds extracted using gtfs2graphs [4]
% PACE format to lparse converter [5]
% Author: hecher (2021-03-09 19:19:06)
%
edge(1,25).
edge(1,29).
edge(2,3).
edge(2,12).
edge(4,27).
edge(4,14).
edge(5,24).
edge(5,18).
edge(6,11).
edge(6,29).
edge(7,11).
edge(7,28).
edge(8,24).
edge(8,28).
edge(9,26).
edge(9,20).
edge(10,17).
edge(10,27).
edge(10,15).
edge(12,22).
edge(13,21).
edge(13,23).
edge(14,18).
edge(15,19).
edge(16,20).
edge(16,21).
edge(17,19).
edge(22,23).
edge(25,26).
