without_loop_formulas/r_a1210993_20150717_0403_subgraph_tram_gr_bz2_lp_lp_paths_tw3.lp.cnf
p cnf 293 668
c 32 select(1,25)
c 33 nots(1,25)
c 34 select(1,29)
c 35 nots(1,29)
c 36 reach(29)
c 37 reach(25)
c 38 select(25,1)
c 39 nots(25,1)
c 40 select(29,1)
c 41 nots(29,1)
c 42 select(29,6)
c 43 nots(29,6)
c 44 select(25,26)
c 45 nots(25,26)
c 46 reach(26)
c 47 reach(6)
c 48 select(26,9)
c 49 nots(26,9)
c 50 select(26,25)
c 51 nots(26,25)
c 52 select(6,11)
c 53 nots(6,11)
c 54 select(6,29)
c 55 nots(6,29)
c 56 reach(11)
c 57 reach(9)
c 58 select(11,6)
c 59 nots(11,6)
c 60 select(11,7)
c 61 nots(11,7)
c 62 select(9,26)
c 63 nots(9,26)
c 64 select(9,20)
c 65 nots(9,20)
c 66 reach(20)
c 67 reach(7)
c 68 select(20,9)
c 69 nots(20,9)
c 70 select(20,16)
c 71 nots(20,16)
c 72 select(7,11)
c 73 nots(7,11)
c 74 select(7,28)
c 75 nots(7,28)
c 76 reach(28)
c 77 reach(16)
c 78 select(28,7)
c 79 nots(28,7)
c 80 select(28,8)
c 81 nots(28,8)
c 82 select(16,20)
c 83 nots(16,20)
c 84 select(16,21)
c 85 nots(16,21)
c 86 reach(21)
c 87 reach(8)
c 88 select(21,13)
c 89 nots(21,13)
c 90 select(21,16)
c 91 nots(21,16)
c 92 select(8,24)
c 93 nots(8,24)
c 94 select(8,28)
c 95 nots(8,28)
c 96 reach(24)
c 97 reach(13)
c 98 select(24,5)
c 99 nots(24,5)
c 100 select(24,8)
c 101 nots(24,8)
c 102 select(13,21)
c 103 nots(13,21)
c 104 select(13,23)
c 105 nots(13,23)
c 106 reach(23)
c 107 reach(5)
c 108 select(23,13)
c 109 nots(23,13)
c 110 select(23,22)
c 111 nots(23,22)
c 112 select(5,24)
c 113 nots(5,24)
c 114 select(5,18)
c 115 nots(5,18)
c 116 reach(18)
c 117 reach(22)
c 118 select(22,12)
c 119 nots(22,12)
c 120 select(18,5)
c 121 nots(18,5)
c 122 select(18,14)
c 123 nots(18,14)
c 124 select(22,23)
c 125 nots(22,23)
c 126 reach(14)
c 127 reach(12)
c 128 select(12,2)
c 129 nots(12,2)
c 130 select(14,4)
c 131 nots(14,4)
c 132 select(12,22)
c 133 nots(12,22)
c 134 select(14,18)
c 135 nots(14,18)
c 136 reach(4)
c 137 reach(2)
c 138 select(2,3)
c 139 nots(2,3)
c 140 select(2,12)
c 141 nots(2,12)
c 142 select(4,27)
c 143 nots(4,27)
c 144 select(4,14)
c 145 nots(4,14)
c 146 reach(27)
c 147 reach(3)
c 148 select(3,2)
c 149 nots(3,2)
c 150 select(27,4)
c 151 nots(27,4)
c 152 select(27,10)
c 153 nots(27,10)
c 154 reach(10)
c 155 select(10,17)
c 156 nots(10,17)
c 157 select(10,27)
c 158 nots(10,27)
c 159 select(10,15)
c 160 nots(10,15)
c 161 reach(15)
c 162 reach(17)
c 163 select(17,10)
c 164 nots(17,10)
c 165 select(15,10)
c 166 nots(15,10)
c 167 select(17,19)
c 168 nots(17,19)
c 169 select(15,19)
c 170 nots(15,19)
c 171 reach(19)
c 172 select(19,15)
c 173 nots(19,15)
c 174 select(19,17)
c 175 nots(19,17)
c 206 edge(1,25)
c 207 edge(1,29)
c 208 edge(2,3)
c 209 edge(2,12)
c 210 edge(4,27)
c 211 edge(4,14)
c 212 edge(5,24)
c 213 edge(5,18)
c 214 edge(6,11)
c 215 edge(6,29)
c 216 edge(7,11)
c 217 edge(7,28)
c 218 edge(8,24)
c 219 edge(8,28)
c 220 edge(9,26)
c 221 edge(9,20)
c 222 edge(10,17)
c 223 edge(10,27)
c 224 edge(10,15)
c 225 edge(12,22)
c 226 edge(13,21)
c 227 edge(13,23)
c 228 edge(14,18)
c 229 edge(15,19)
c 230 edge(16,20)
c 231 edge(16,21)
c 232 edge(17,19)
c 233 edge(22,23)
c 234 edge(25,26)
c 235 reach(1)
c 236 goal(29)
32 33 0
-32 -33 0
34 35 0
-34 -35 0
237 -34 0
-237 34 0
238 -32 0
-238 32 0
38 -37 39 0
-38 37 0
-38 -39 0
40 -36 41 0
-40 36 0
-40 -41 0
42 -36 43 0
-42 36 0
-42 -43 0
44 -37 45 0
-44 37 0
-44 -45 0
239 -44 0
-239 44 0
240 -42 0
-240 42 0
48 -46 49 0
-48 46 0
-48 -49 0
50 -46 51 0
-50 46 0
-50 -51 0
52 -47 53 0
-52 47 0
-52 -53 0
54 -47 55 0
-54 47 0
-54 -55 0
241 -54 0
-241 54 0
242 -52 0
-242 52 0
243 -50 0
-243 50 0
244 -48 0
-244 48 0
58 -56 59 0
-58 56 0
-58 -59 0
60 -56 61 0
-60 56 0
-60 -61 0
62 -57 63 0
-62 57 0
-62 -63 0
64 -57 65 0
-64 57 0
-64 -65 0
245 -64 0
-245 64 0
246 -62 0
-246 62 0
247 -60 0
-247 60 0
248 -58 0
-248 58 0
68 -66 69 0
-68 66 0
-68 -69 0
70 -66 71 0
-70 66 0
-70 -71 0
72 -67 73 0
-72 67 0
-72 -73 0
74 -67 75 0
-74 67 0
-74 -75 0
249 -74 0
-249 74 0
250 -72 0
-250 72 0
251 -70 0
-251 70 0
252 -68 0
-252 68 0
78 -76 79 0
-78 76 0
-78 -79 0
80 -76 81 0
-80 76 0
-80 -81 0
82 -77 83 0
-82 77 0
-82 -83 0
84 -77 85 0
-84 77 0
-84 -85 0
253 -84 0
-253 84 0
254 -82 0
-254 82 0
255 -80 0
-255 80 0
256 -78 0
-256 78 0
88 -86 89 0
-88 86 0
-88 -89 0
90 -86 91 0
-90 86 0
-90 -91 0
92 -87 93 0
-92 87 0
-92 -93 0
94 -87 95 0
-94 87 0
-94 -95 0
257 -94 0
-257 94 0
258 -92 0
-258 92 0
259 -90 0
-259 90 0
260 -88 0
-260 88 0
98 -96 99 0
-98 96 0
-98 -99 0
100 -96 101 0
-100 96 0
-100 -101 0
102 -97 103 0
-102 97 0
-102 -103 0
104 -97 105 0
-104 97 0
-104 -105 0
261 -104 0
-261 104 0
262 -102 0
-262 102 0
263 -100 0
-263 100 0
264 -98 0
-264 98 0
108 -106 109 0
-108 106 0
-108 -109 0
110 -106 111 0
-110 106 0
-110 -111 0
112 -107 113 0
-112 107 0
-112 -113 0
114 -107 115 0
-114 107 0
-114 -115 0
265 -114 0
-265 114 0
266 -112 0
-266 112 0
267 -110 0
-267 110 0
268 -108 0
-268 108 0
118 -117 119 0
-118 117 0
-118 -119 0
120 -116 121 0
-120 116 0
-120 -121 0
122 -116 123 0
-122 116 0
-122 -123 0
124 -117 125 0
-124 117 0
-124 -125 0
269 -124 0
-269 124 0
270 -122 0
-270 122 0
271 -120 0
-271 120 0
272 -118 0
-272 118 0
128 -127 129 0
-128 127 0
-128 -129 0
130 -126 131 0
-130 126 0
-130 -131 0
132 -127 133 0
-132 127 0
-132 -133 0
134 -126 135 0
-134 126 0
-134 -135 0
273 -134 0
-273 134 0
274 -132 0
-274 132 0
275 -130 0
-275 130 0
276 -128 0
-276 128 0
138 -137 139 0
-138 137 0
-138 -139 0
140 -137 141 0
-140 137 0
-140 -141 0
142 -136 143 0
-142 136 0
-142 -143 0
144 -136 145 0
-144 136 0
-144 -145 0
277 -144 0
-277 144 0
278 -142 0
-278 142 0
279 -140 0
-279 140 0
147 -138 0
-147 138 0
148 -147 149 0
-148 147 0
-148 -149 0
150 -146 151 0
-150 146 0
-150 -151 0
152 -146 153 0
-152 146 0
-152 -153 0
280 -152 0
-280 152 0
281 -150 0
-281 150 0
282 -148 0
-282 148 0
155 -154 156 0
-155 154 0
-155 -156 0
157 -154 158 0
-157 154 0
-157 -158 0
159 -154 160 0
-159 154 0
-159 -160 0
283 -159 0
-283 159 0
284 -157 0
-284 157 0
285 -155 0
-285 155 0
163 -162 164 0
-163 162 0
-163 -164 0
165 -161 166 0
-165 161 0
-165 -166 0
167 -162 168 0
-167 162 0
-167 -168 0
169 -161 170 0
-169 161 0
-169 -170 0
286 -169 0
-286 169 0
287 -167 0
-287 167 0
288 -165 0
-288 165 0
289 -163 0
-289 163 0
172 -171 173 0
-172 171 0
-172 -173 0
174 -171 175 0
-174 171 0
-174 -175 0
290 -174 0
-290 174 0
291 -172 0
-291 172 0
39 -37 38 0
-39 37 0
-39 -38 0
41 -36 40 0
-41 36 0
-41 -40 0
149 -147 148 0
-149 147 0
-149 -148 0
129 -127 128 0
-129 127 0
-129 -128 0
151 -146 150 0
-151 146 0
-151 -150 0
131 -126 130 0
-131 126 0
-131 -130 0
99 -96 98 0
-99 96 0
-99 -98 0
121 -116 120 0
-121 116 0
-121 -120 0
59 -56 58 0
-59 56 0
-59 -58 0
43 -36 42 0
-43 36 0
-43 -42 0
61 -56 60 0
-61 56 0
-61 -60 0
79 -76 78 0
-79 76 0
-79 -78 0
101 -96 100 0
-101 96 0
-101 -100 0
81 -76 80 0
-81 76 0
-81 -80 0
49 -46 48 0
-49 46 0
-49 -48 0
69 -66 68 0
-69 66 0
-69 -68 0
164 -162 163 0
-164 162 0
-164 -163 0
153 -146 152 0
-153 146 0
-153 -152 0
166 -161 165 0
-166 161 0
-166 -165 0
119 -117 118 0
-119 117 0
-119 -118 0
89 -86 88 0
-89 86 0
-89 -88 0
109 -106 108 0
-109 106 0
-109 -108 0
123 -116 122 0
-123 116 0
-123 -122 0
173 -171 172 0
-173 171 0
-173 -172 0
71 -66 70 0
-71 66 0
-71 -70 0
91 -86 90 0
-91 86 0
-91 -90 0
175 -171 174 0
-175 171 0
-175 -174 0
111 -106 110 0
-111 106 0
-111 -110 0
51 -46 50 0
-51 46 0
-51 -50 0
33 32 0
-33 -32 0
35 34 0
-35 -34 0
139 -137 138 0
-139 137 0
-139 -138 0
141 -137 140 0
-141 137 0
-141 -140 0
143 -136 142 0
-143 136 0
-143 -142 0
145 -136 144 0
-145 136 0
-145 -144 0
113 -107 112 0
-113 107 0
-113 -112 0
115 -107 114 0
-115 107 0
-115 -114 0
53 -47 52 0
-53 47 0
-53 -52 0
55 -47 54 0
-55 47 0
-55 -54 0
73 -67 72 0
-73 67 0
-73 -72 0
75 -67 74 0
-75 67 0
-75 -74 0
93 -87 92 0
-93 87 0
-93 -92 0
95 -87 94 0
-95 87 0
-95 -94 0
63 -57 62 0
-63 57 0
-63 -62 0
65 -57 64 0
-65 57 0
-65 -64 0
156 -154 155 0
-156 154 0
-156 -155 0
158 -154 157 0
-158 154 0
-158 -157 0
160 -154 159 0
-160 154 0
-160 -159 0
133 -127 132 0
-133 127 0
-133 -132 0
103 -97 102 0
-103 97 0
-103 -102 0
105 -97 104 0
-105 97 0
-105 -104 0
135 -126 134 0
-135 126 0
-135 -134 0
170 -161 169 0
-170 161 0
-170 -169 0
83 -77 82 0
-83 77 0
-83 -82 0
85 -77 84 0
-85 77 0
-85 -84 0
168 -162 167 0
-168 162 0
-168 -167 0
125 -117 124 0
-125 117 0
-125 -124 0
45 -37 44 0
-45 37 0
-45 -44 0
292 -40 0
-292 40 0
293 -42 0
-293 42 0
36 0
-178 0
-34 -32 0
-42 -40 -36 0
-44 -38 -37 0
-50 -48 -46 0
-54 -52 -47 0
-60 -58 -56 0
-62 -64 -57 0
-70 -68 -66 0
-74 -72 -67 0
-80 -78 -76 0
-84 -82 -77 0
-90 -88 -86 0
-94 -92 -87 0
-100 -98 -96 0
-104 -102 -97 0
-110 -108 -106 0
-112 -114 -107 0
-122 -120 -116 0
-124 -118 -117 0
-132 -128 -127 0
-134 -130 -126 0
-140 -138 -137 0
-142 -144 -136 0
-152 -150 -146 0
-155 -159 -154 0
-157 -155 -154 0
-157 -159 -154 0
-167 -163 -162 0
-169 -165 -161 0
-174 -172 -171 0
206 0
207 0
208 0
209 0
210 0
211 0
212 0
213 0
214 0
215 0
216 0
217 0
218 0
219 0
220 0
221 0
222 0
223 0
224 0
225 0
226 0
227 0
228 0
229 0
230 0
231 0
232 0
233 0
234 0
235 0
236 0
-1 0
-2 0
-3 0
-4 0
-5 0
-6 0
-7 0
-8 0
-9 0
-10 0
-11 0
-12 0
-13 0
-14 0
-15 0
-16 0
-17 0
-18 0
-19 0
-20 0
-21 0
-22 0
-23 0
-24 0
-25 0
-26 0
-27 0
-28 0
-29 0
-30 0
-31 0
-36 237 241 0
36 -237 0
36 -241 0
-37 238 243 0
37 -238 0
37 -243 0
-46 239 246 0
46 -239 0
46 -246 0
-47 240 248 0
47 -240 0
47 -248 0
-56 242 250 0
56 -242 0
56 -250 0
-57 244 252 0
57 -244 0
57 -252 0
-66 245 254 0
66 -245 0
66 -254 0
-67 247 256 0
67 -247 0
67 -256 0
-76 249 257 0
76 -249 0
76 -257 0
-77 251 259 0
77 -251 0
77 -259 0
-86 253 262 0
86 -253 0
86 -262 0
-87 255 263 0
87 -255 0
87 -263 0
-96 258 266 0
96 -258 0
96 -266 0
-97 260 268 0
97 -260 0
97 -268 0
-106 261 269 0
106 -261 0
106 -269 0
-107 264 271 0
107 -264 0
107 -271 0
-116 265 273 0
116 -265 0
116 -273 0
-117 267 274 0
117 -267 0
117 -274 0
-126 270 277 0
126 -270 0
126 -277 0
-127 272 279 0
127 -272 0
127 -279 0
-136 275 281 0
136 -275 0
136 -281 0
-137 276 282 0
137 -276 0
137 -282 0
-146 278 284 0
146 -278 0
146 -284 0
-154 280 288 289 0
154 -280 0
154 -288 0
154 -289 0
-161 283 291 0
161 -283 0
161 -291 0
-162 285 290 0
162 -285 0
162 -290 0
-171 286 287 0
171 -286 0
171 -287 0
-176 0
-177 0
-178 292 293 0
178 -292 0
178 -293 0
-179 0
-180 0
-181 0
-182 0
-183 0
-184 0
-185 0
-186 0
-187 0
-188 0
-189 0
-190 0
-191 0
-192 0
-193 0
-194 0
-195 0
-196 0
-197 0
-198 0
-199 0
-200 0
-201 0
-202 0
-203 0
-204 0
-205 0
